1611842
54 13 13536
13 65 18316
65 45 16726
45 27 8214
27 17 1445
17 9 5356
9 58 1777
58 15 6904
15 8 6874
8 36 11459
36 59 8563
59 16 10880
16 28 30472
28 50 10810
50 68 52828
68 35 19070
35 51 8926
51 39 11004
39 62 8740
62 37 30446
37 53 6554
53 44 84806
44 10 75759
10 18 28652
18 57 27906
57 33 88918
33 52 101509
52 14 39276
14 31 70585
31 22 39447
22 43 102153
43 46 69394
46 34 36286
34 55 20835
55 26 61621
26 66 57991
66 11 13370
11 64 35955
64 67 14572
67 7 19183
7 38 28523
38 21 42598
21 3 17216
3 61 12947
61 24 5437
24 63 26977
63 2 25131
2 48 7938
48 4 7248
4 20 4440
20 47 12843
47 1 14424
1 12 10465
12 42 4831
42 32 5759
32 56 1427
56 40 3489
40 5 3130
5 29 9526
29 25 9940
25 30 1249
30 41 5056
41 6 10602
6 60 15832
60 23 7498
23 49 4353
49 19 8895
19 54 26950
